************************************************************************
file with basedata            : cn118_.bas
initial value random generator: 1042819851
************************************************************************
projects                      :  1
jobs (incl. supersource/sink ):  18
horizon                       :  130
RESOURCES
  - renewable                 :  2   R
  - nonrenewable              :  1   N
  - doubly constrained        :  0   D
************************************************************************
PROJECT INFORMATION:
pronr.  #jobs rel.date duedate tardcost  MPM-Time
    1     16      0       20        8       20
************************************************************************
PRECEDENCE RELATIONS:
jobnr.    #modes  #successors   successors
   1        1          3           2   3   4
   2        3          2           7  10
   3        3          1           9
   4        3          3           5   6  12
   5        3          3          10  11  14
   6        3          1           9
   7        3          2           8  11
   8        3          3           9  12  14
   9        3          2          13  17
  10        3          3          15  16  17
  11        3          3          13  16  17
  12        3          1          13
  13        3          1          15
  14        3          2          15  16
  15        3          1          18
  16        3          1          18
  17        3          1          18
  18        1          0        
************************************************************************
REQUESTS/DURATIONS:
jobnr. mode duration  R 1  R 2  N 1
------------------------------------------------------------------------
  1      1     0       0    0    0
  2      1     5       9    0    0
         2     8       7    0    0
         3     9       6    0    0
  3      1     2       0    3    0
         2     5       5    0    0
         3     8       2    0    0
  4      1     4       7    0    7
         2     7       2    0    6
         3     8       0    4    5
  5      1     2       9    0    0
         2     6       7    0    1
         3     7       0    5    0
  6      1     4       0    9    9
         2     7       9    0    7
         3     8       9    0    3
  7      1     3       0    8    0
         2     4       2    0    5
         3     9       1    0    0
  8      1     2       0    5    7
         2     2       9    0    8
         3     8       6    0    0
  9      1     2       0   10    0
         2     3       0    5    9
         3     8       7    0    0
 10      1     1       0    3    0
         2     2       9    0    0
         3     9       8    0    5
 11      1     1       0   10   10
         2     6       0    7    0
         3     7       0    4    8
 12      1     1       0    6    0
         2    10       5    0    2
         3    10       0    5    3
 13      1     1       0    5    0
         2     3       0    3   10
         3     6       7    0    7
 14      1     9       7    0    5
         2    10       0    4    5
         3    10       0    5    4
 15      1     1       0    5    9
         2    10       6    0    0
         3    10       0    4    0
 16      1     1       7    0    0
         2     2       0    9    0
         3     3       3    0    0
 17      1     7       0    2    7
         2    10       1    0    0
         3    10       0    2    6
 18      1     0       0    0    0
************************************************************************
RESOURCEAVAILABILITIES:
  R 1  R 2  N 1
   19   12   69
************************************************************************
